(set-logic QF_S)
(declare-fun var0 () String)
(assert (RegexIn var0 (RegexConcat (RegexPlus (RegexStar (Str2Reg "000"))) (RegexConcat (RegexStar (RegexUnion (Str2Reg "111") (Str2Reg "222"))) (RegexConcat (RegexStar (RegexStar (Str2Reg "333"))) (RegexConcat (RegexUnion (RegexPlus (Str2Reg "4")) (RegexPlus (Str2Reg "5"))) (RegexConcat (RegexUnion (RegexUnion (Str2Reg "666") (Str2Reg "7")) (RegexUnion (Str2Reg "888") (Str2Reg "9"))) (RegexConcat (RegexUnion (RegexPlus (Str2Reg "aa")) (RegexPlus (Str2Reg "b"))) (RegexConcat (RegexStar (RegexUnion (Str2Reg "ccc") (Str2Reg "dd"))) (RegexConcat (RegexPlus (RegexPlus (Str2Reg "ee"))) (RegexConcat (RegexUnion (RegexUnion (Str2Reg "f") (Str2Reg "g")) (RegexUnion (Str2Reg "hhh") (Str2Reg "ii"))) (RegexConcat (RegexPlus (RegexPlus (Str2Reg "jjj"))) (RegexConcat (RegexStar (RegexStar (Str2Reg "kkk"))) (RegexConcat (RegexUnion (RegexPlus (Str2Reg "lll")) (RegexPlus (Str2Reg "mmm"))) (RegexConcat (RegexPlus (RegexStar (Str2Reg "n"))) (RegexConcat (RegexStar (RegexStar (Str2Reg "ooo"))) (RegexConcat (RegexStar (RegexPlus (Str2Reg "ppp"))) (RegexConcat (RegexPlus (RegexStar (Str2Reg "qq"))) (RegexConcat (RegexStar (RegexUnion (Str2Reg "rr") (Str2Reg "s"))) (RegexConcat (RegexStar (RegexStar (Str2Reg "t"))) (RegexConcat (RegexUnion (RegexPlus (Str2Reg "uuu")) (RegexPlus (Str2Reg "v"))) (RegexConcat (RegexStar (RegexUnion (Str2Reg "w") (Str2Reg "xxx"))) (RegexStar (RegexUnion (Str2Reg "y") (Str2Reg "zzz")))))))))))))))))))))))))
(assert (not (RegexIn var0 (RegexConcat (RegexStar (RegexPlus (Str2Reg "000"))) (RegexConcat (RegexStar (RegexPlus (Str2Reg "11"))) (RegexConcat (RegexPlus (RegexUnion (Str2Reg "222") (Str2Reg "3"))) (RegexConcat (RegexStar (RegexStar (Str2Reg "4"))) (RegexConcat (RegexStar (RegexPlus (Str2Reg "55"))) (RegexConcat (RegexPlus (RegexStar (Str2Reg "6"))) (RegexConcat (RegexStar (RegexStar (Str2Reg "7"))) (RegexConcat (RegexUnion (RegexStar (Str2Reg "8")) (RegexStar (Str2Reg "999"))) (RegexConcat (RegexPlus (RegexPlus (Str2Reg "aaa"))) (RegexConcat (RegexPlus (RegexUnion (Str2Reg "b") (Str2Reg "cc"))) (RegexConcat (RegexPlus (RegexPlus (Str2Reg "dd"))) (RegexConcat (RegexStar (RegexUnion (Str2Reg "eee") (Str2Reg "fff"))) (RegexConcat (RegexUnion (RegexPlus (Str2Reg "ggg")) (RegexPlus (Str2Reg "hh"))) (RegexConcat (RegexPlus (RegexStar (Str2Reg "iii"))) (RegexConcat (RegexStar (RegexPlus (Str2Reg "jjj"))) (RegexConcat (RegexUnion (RegexUnion (Str2Reg "kkk") (Str2Reg "l")) (RegexUnion (Str2Reg "mmm") (Str2Reg "nnn"))) (RegexConcat (RegexUnion (RegexUnion (Str2Reg "oo") (Str2Reg "ppp")) (RegexUnion (Str2Reg "qq") (Str2Reg "r"))) (RegexConcat (RegexPlus (RegexStar (Str2Reg "sss"))) (RegexConcat (RegexStar (RegexStar (Str2Reg "ttt"))) (RegexConcat (RegexPlus (RegexPlus (Str2Reg "u"))) (RegexPlus (RegexStar (Str2Reg "vvv"))))))))))))))))))))))))))
(check-sat)